p cnf 59 42
d 0.875 0.125
d 0.875 0.125
d 0.875 0.125
d 0.875 0.125
d 0.875 0.125
d 0.875 0.125
d 0.875 0.125
d 0.875 0.125
d 0.875 0.125
d 0.875 0.125
d 0.875 0.125
d 0.875 0.125
d 0.875 0.125
d 0.875 0.125
d 0.875 0.125
d 0.875 0.125
d 0.875 0.125
d 0.875 0.125
d 0.875 0.125
d 0.875 0.125
45
-40
50 -40 -0
40 -50 -0
43 -42 -2
42 -43 -2
56 -51 -4
51 -56 -4
49 -48 -6
48 -49 -6
55 -44 -8
44 -55 -8
50 -53 -10
53 -50 -10
50 -51 -12
51 -50 -12
55 -47 -14
47 -55 -14
41 -46 -16
46 -41 -16
46 -58 -18
58 -46 -18
47 -54 -20
54 -47 -20
49 -44 -22
44 -49 -22
57 -40 -24
40 -57 -24
50 -44 -26
44 -50 -26
53 -54 -28
54 -53 -28
55 -58 -30
58 -55 -30
50 -57 -32
57 -50 -32
55 -54 -34
54 -55 -34
49 -53 -36
53 -49 -36
50 -42 -38
42 -50 -38